c This Formular is generated by mcnf
c
c    horn? no 
c    forced? no 
c    mixed sat? no 
c    clause length = 3 
c
p cnf 20  91 
 1 -20 5 0
8 -1 2 0
3 -15 19 0
-15 6 -13 0
9 -19 -13 0
3 20 17 0
-2 -11 8 0
16 13 -9 0
-17 15 6 0
3 -19 16 0
5 14 -7 0
-8 -14 19 0
-16 -6 17 0
15 -8 -9 0
7 -14 -9 0
2 -3 20 0
18 12 7 0
16 17 -20 0
17 -1 -2 0
-11 -10 -20 0
-14 19 -20 0
%
0

56 93 6 95 74 66 18 54 87 78 39 36 36 71 31 20 13 17 85 42
